experiment/data/lkh-res/Vrp-Set-B-n44/Vrp-Set-B-n44-lkh/0.lkh1.vrp
NAME : 0
COMMENT : CVRP Instance
TYPE : CVRP
DIMENSION : 44
EDGE_WEIGHT_TYPE : EUC_2D
CAPACITY : 100
NODE_COORD_SECTION
1	3500	3100
2	7700	1300
3	9500	5100
4	9100	1500
5	6500	9300
6	5100	1700
7	4100	5700
8	3900	3900
9	7000	10200
10	7400	9400
11	8100	9700
12	7700	9500
13	8400	1400
14	4800	6000
15	9800	5400
16	9200	1800
17	4200	4200
18	5200	1800
19	4400	4200
20	4800	4400
21	8000	2200
22	4200	5800
23	7300	10500
24	8100	10100
25	10200	5800
26	8200	1800
27	9600	5800
28	9800	1800
29	8400	1600
30	4400	4400
31	7300	10300
32	9600	1600
33	4600	4800
34	9200	1600
35	4400	6400
36	9800	2200
37	9600	5200
38	4600	6400
39	7700	10300
40	10400	5400
41	5800	2000
42	4600	6400
43	7300	10300
44	9400	1600
DEMAND_SECTION
1	0
2	26
3	11
4	22
5	18
6	10
7	9
8	12
9	10
10	12
11	19
12	5
13	18
14	7
15	14
16	14
17	20
18	7
19	4
20	11
21	3
22	22
23	15
24	69
25	26
26	20
27	12
28	22
29	9
30	23
31	7
32	17
33	3
34	18
35	18
36	9
37	4
38	20
39	24
40	3
41	4
42	4
43	23
44	17
DEPOT_SECTION
1
-1
EOF
