experiment/data/lkh-res/Vrp-Set-B-n44/Vrp-Set-B-n44-lkh/0.lkh1.tour
NAME : 0.91492.tour
COMMENT : Length = 91492
COMMENT : Found by LKH-3 [Keld Helsgaun] Tue Apr  9 00:55:23 2024
TYPE : TOUR
DIMENSION : 50
TOUR_SECTION
1
7
22
35
38
42
14
20
48
41
2
13
4
29
26
45
5
9
31
43
23
39
47
30
17
8
50
10
27
25
40
15
37
3
18
6
49
33
12
24
11
19
46
21
16
34
44
32
28
36
-1
EOF
